18295
1 1 1 0 1 1 0 1 1 1 1 1 0 1 0 0 1 0 1 0 1 1 1 1 1 1 0 1 0 1
21 18 0 11 20 8 13 18 21 1 8 13 24 21 5 23 13 8 7 16 23 27 8 25 5 22 23 29 25 9 4 13 10 7 4 21 20 24 16 5 4 13 18 10 4 24 0 8 5 7 22 13 8 7 13 22 27 29 8 25 22 13 8 7 13 2 24 22 9 4 8 13 18 21 16 22 7 16 5 7 11 13 10 9 4 21 27 25 11 5 4 13 8 10 4 23 21 24 21 16 4 13 22 9 4 22 27 8 25 9 10 20 8 5 13 22 8 8 7 5 7 20 16 25 13 22 20 8 25 2 10 16 8 25 7 21 20 8 8 25 8 13 18 10 1 22 27 8 25 11